c A SAT instance generated from a 3-CNF formula that had 10 clauses and 10 variables
p cnf 10 10
1 -5 3 0
7 1 4 0
-10 2 -5 0
-9 1 2 0
-1 -4 -10 0
8 -10 7 0
4 6 2 0
10 9 -6 0
-10 9 2 0
1 6 -5 0
%
0

77 24 28 8 95 10 30 32 57 49
